(declare-const |n'| Int)
(declare-const K Int)
(declare-const |z'| Int)
(declare-const |y'| Int)
(declare-const a Int)
(declare-const |x'| Int)
(assert (exists ((x?1 Int) (y?2 Int) (n?3 Int) (z?4 Int))
         (and (= (+ (+ -6 (* -6 n?3)) z?4) 0)
                (<= 0 (+ (+ -1 (* -3 n?3)) y?2)) (<= 0 x?1) (<= 0 (+ -1 n?3))
                (<= 0 (+ a (- n?3))) (= (- K) (- (+ |n'| (- n?3))))
                (= (* -6 K) (- (+ |z'| (- z?4))))
                (or (and (= K 0) (= z?4 |z'|) (= y?2 |y'|) (= x?1 |x'|)
                           (= n?3 |n'|))
                      (and (<= 1 K) (= (+ (+ 6 (- z?4)) (* 6 n?3)) 0)
                             (= (+ (+ -6 (* -6 |n'|)) |z'|) 0))) (<= 
                0 K))))
(check-sat)
